0 70 
98 96 
45 3 
89 6 
55 54 
34 15 
83 51 
62 57 
96 96 
63 82 
93 70 
68 99 
65 34 
22 66 
28 97 
99 81 
19 49 
77 65 
52 19 
23 59 
73 57 
74 9 
9 89 
18 5 
37 81 
39 30 
3 59 
81 69 
94 3 
87 74 
53 38 
55 72 
39 85 
89 92 
4 13 
3 29 
70 78 
90 31 
19 8 
88 56 
42 80 
39 45 
39 20 
66 85 
24 5 
12 77 
95 67 
1 35 
4 91 
27 60 
